4129
219 41
427 21
267 42
58 67
79 56
757 68
497 7
257 15
776 89
327 66
579 36
130 52
62 50
280 86
789 96
53 40
628 32
779 8
284 41
45 39
252 99
417 86
706 35
367 26
578 29
38 51
342 49
120 45
528 43
44 80
312 100
19 43
91 86
504 8
294 36
665 32
68 13
323 36
647 45
458 57
525 36
689 36
583 78
221 21
130 51
475 80
205 76
337 43
747 53
711 41
